Welcome to the CBC MILP Solver 
Version: 2.10.12 
Build Date: Aug 20 2024 

command line - /opt/homebrew/bin/cbc computational_data/real_data/lp/penguins_trial_016_margin.lp seconds 10.0 solve solu computational_data/real_data/solutions/penguins_trial_016_margin.sol (default strategy 1)
 CoinLpIO::readLp(): Maximization problem reformulated as minimization
Coin0009I Switching back to maximization to get correct duals etc
seconds was changed from 1e+100 to 10
Continuous objective value is 67.0094 - 0.00 seconds
Cgl0003I 0 fixed, 0 tightened bounds, 40 strengthened rows, 0 substitutions
Cgl0003I 0 fixed, 0 tightened bounds, 45 strengthened rows, 0 substitutions
Cgl0003I 0 fixed, 0 tightened bounds, 43 strengthened rows, 0 substitutions
Cgl0003I 0 fixed, 0 tightened bounds, 28 strengthened rows, 0 substitutions
Cgl0003I 0 fixed, 0 tightened bounds, 18 strengthened rows, 0 substitutions
Cgl0003I 0 fixed, 0 tightened bounds, 11 strengthened rows, 0 substitutions
Cgl0003I 0 fixed, 0 tightened bounds, 6 strengthened rows, 0 substitutions
Cgl0003I 0 fixed, 0 tightened bounds, 4 strengthened rows, 0 substitutions
Cgl0003I 0 fixed, 0 tightened bounds, 3 strengthened rows, 0 substitutions
Cgl0004I processed model has 57 rows, 27 columns (27 integer (26 of which binary)) and 459 elements
Cbc0038I Initial state - 8 integers unsatisfied sum - 4
Cbc0038I Pass   1: suminf.    3.00000 (6) obj. 67.0093 iterations 13
Cbc0038I Pass   2: suminf.    3.00000 (6) obj. 67.0093 iterations 0
Cbc0038I Pass   3: suminf.    0.00000 (0) obj. 67.0093 iterations 4
Cbc0038I Solution found of 67.0093
Cbc0038I Cleaned solution of 67.0093
Cbc0038I Before mini branch and bound, 15 integers at bound fixed and 0 continuous
Cbc0038I Full problem 57 rows 27 columns, reduced to 32 rows 11 columns
Cbc0038I Mini branch and bound improved solution from 67.0093 to 67.0093 (0.01 seconds)
Cbc0038I After 0.01 seconds - Feasibility pump exiting with objective of 67.0093 - took 0.00 seconds
Cbc0012I Integer solution of 67.009313 found by feasibility pump after 0 iterations and 0 nodes (0.01 seconds)
Cbc0001I Search completed - best objective 67.00931299999999, took 0 iterations and 0 nodes (0.01 seconds)
Cbc0035I Maximum depth 0, 6 variables fixed on reduced cost
Cuts at root node changed objective from 67.0093 to 67.0093
Probing was tried 0 times and created 0 cuts of which 0 were active after adding rounds of cuts (0.000 seconds)
Gomory was tried 0 times and created 0 cuts of which 0 were active after adding rounds of cuts (0.000 seconds)
Knapsack was tried 0 times and created 0 cuts of which 0 were active after adding rounds of cuts (0.000 seconds)
Clique was tried 0 times and created 0 cuts of which 0 were active after adding rounds of cuts (0.000 seconds)
MixedIntegerRounding2 was tried 0 times and created 0 cuts of which 0 were active after adding rounds of cuts (0.000 seconds)
FlowCover was tried 0 times and created 0 cuts of which 0 were active after adding rounds of cuts (0.000 seconds)
TwoMirCuts was tried 0 times and created 0 cuts of which 0 were active after adding rounds of cuts (0.000 seconds)
ZeroHalf was tried 0 times and created 0 cuts of which 0 were active after adding rounds of cuts (0.000 seconds)

Result - Optimal solution found

Objective value:                67.00931300
Enumerated nodes:               0
Total iterations:               0
Time (CPU seconds):             0.01
Time (Wallclock seconds):       0.01

Total time (CPU seconds):       0.01   (Wallclock seconds):       0.01

